Version identifier: 22.1.0.0 | 2022-03-09 | 1a383f8ce
CPXPARAM_Threads                                 1
CPXPARAM_MIP_Strategy_VariableSelect             3
CPXPARAM_TimeLimit                               599.99998602799997
1 of 1 MIP starts provided solutions.
MIP start 'm1' defined initial solution with objective 1.0000.
Tried aggregator 1 time.
MIP Presolve eliminated 13 rows and 0 columns.
MIP Presolve modified 272 coefficients.
Reduced MIP has 1212 rows, 5000 columns, and 72748 nonzeros.
Reduced MIP has 5000 binaries, 0 generals, 0 SOSs, and 0 indicators.
Presolve time = 0.09 sec. (135.25 ticks)
Probing time = 0.02 sec. (15.04 ticks)
Tried aggregator 1 time.
Detecting symmetries...
MIP Presolve modified 14 coefficients.
Reduced MIP has 1212 rows, 5000 columns, and 73119 nonzeros.
Reduced MIP has 5000 binaries, 0 generals, 0 SOSs, and 0 indicators.
Presolve time = 0.07 sec. (83.65 ticks)
Probing time = 0.02 sec. (15.09 ticks)
Clique table members: 796.
MIP emphasis: balance optimality and feasibility.
MIP search method: dynamic search.
Parallel mode: none, using 1 thread.
Root relaxation solution time = 0.94 sec. (1142.77 ticks)

        Nodes                                         Cuts/
   Node  Left     Objective  IInf  Best Integer    Best Bound    ItCnt     Gap

*     0+    0                            1.0000    20100.0000              --- 
      0     0      200.0000   861        1.0000      200.0000     4246     --- 
*     0+    0                           17.0000      200.0000              --- 
      0     0      200.0000   743       17.0000      Cuts: 11     7143     --- 
*     0+    0                          158.0000      200.0000            26.58%
      0     0      200.0000   611      158.0000       Cuts: 6    10518   26.58%
      0     0      200.0000   354      158.0000       Cuts: 9    12699   26.58%
*     0+    0                          188.0000      200.0000             6.38%
      0     0        cutoff            188.0000      200.0000    12699    6.38%
      0     0      200.0000   377      188.0000       Cuts: 7    13376    6.38%
      0     0      200.0000   452      188.0000      Cuts: 15    16804    6.38%
Detecting symmetries...
Detecting symmetries...
      0     2      200.0000   337      188.0000      200.0000    16804    6.38%
Elapsed time = 37.35 sec. (41705.38 ticks, tree = 0.01 MB, solutions = 4)
      1     3      200.0000   448      188.0000      200.0000    23121    6.38%
      2     4      200.0000   342      188.0000      200.0000    23578    6.38%
      3     5      200.0000   506      188.0000      200.0000    28535    6.38%
      4     6      200.0000   480      188.0000      200.0000    32756    6.38%
      5     7      200.0000   452      188.0000      200.0000    37205    6.38%
      6     8      200.0000   528      188.0000      200.0000    43142    6.38%
      7     8      200.0000   776      188.0000      200.0000    43689    6.38%
      8     8      199.0000   627      188.0000      200.0000    51737    6.38%
      9     9      200.0000   520      188.0000      200.0000    51989    6.38%
     10    10      200.0000   560      188.0000      200.0000    57760    6.38%
Elapsed time = 52.21 sec. (57559.46 ticks, tree = 0.03 MB, solutions = 4)
     12    12      200.0000   568      188.0000      200.0000    61642    6.38%
     14    14      200.0000   498      188.0000      200.0000    64941    6.38%
     16    14      199.8000   580      188.0000      200.0000    74431    6.38%
     19    17      200.0000   578      188.0000      200.0000    77463    6.38%
     20    17      199.0000   690      188.0000      200.0000    85484    6.38%
     24    20      199.0000   466      188.0000      200.0000    97783    6.38%
     26    21      199.8459   505      188.0000      200.0000   104160    6.38%
     28    22      200.0000   517      188.0000      200.0000   108100    6.38%
     30    23      199.0000   472      188.0000      200.0000   111831    6.38%
     33    26      200.0000   522      188.0000      200.0000   113457    6.38%
Elapsed time = 67.49 sec. (74235.91 ticks, tree = 0.08 MB, solutions = 4)
     36    29      200.0000   708      188.0000      200.0000   116228    6.38%
     39    30      200.0000   512      188.0000      200.0000   118735    6.38%
     43    32    infeasible            188.0000      200.0000   122094    6.38%
     45    33      200.0000   346      188.0000      200.0000   129185    6.38%
     50    36      200.0000   301      188.0000      200.0000   133053    6.38%
     55    39      199.9105   363      188.0000      200.0000   141410    6.38%
     60    43      199.0000   313      188.0000      200.0000   150484    6.38%
     62    44      200.0000   263      188.0000      200.0000   155228    6.38%
     66    48      200.0000   174      188.0000      200.0000   160393    6.38%
     70    49      200.0000   267      188.0000      200.0000   170019    6.38%
Elapsed time = 80.23 sec. (87462.83 ticks, tree = 0.13 MB, solutions = 4)
     77    53      200.0000   296      188.0000      200.0000   176968    6.38%
     80    54      199.0000   301      188.0000      200.0000   182574    6.38%
     86    58      199.7244   301      188.0000      200.0000   189310    6.38%
     92    62      199.0000   296      188.0000      200.0000   195512    6.38%
     97    65      199.3375   277      188.0000      200.0000   204449    6.38%
    102    67      200.0000   140      188.0000      200.0000   210471    6.38%
    107    70      200.0000   154      188.0000      200.0000   217972    6.38%
    115    72      199.0000   217      188.0000      200.0000   225755    6.38%
    120    75      199.0000   219      188.0000      200.0000   228718    6.38%
    129    78      198.8705   340      188.0000      200.0000   236827    6.38%
Elapsed time = 92.06 sec. (99066.98 ticks, tree = 0.19 MB, solutions = 4)
    136    83      199.0000   189      188.0000      200.0000   243120    6.38%
    143    87      198.0000   224      188.0000      200.0000   248990    6.38%
    152    95      197.0000   251      188.0000      200.0000   252846    6.38%
    159    98      198.0000   196      188.0000      200.0000   259507    6.38%
    169   103      197.0222   260      188.0000      200.0000   267026    6.38%
    179   108      197.3141   222      188.0000      200.0000   275302    6.38%
    188   114      198.0000   195      188.0000      200.0000   280627    6.38%
    201   122      197.0000   256      188.0000      200.0000   285906    6.38%
    213   129      197.0000   228      188.0000      200.0000   291701    6.38%
    225   134    infeasible            188.0000      200.0000   294526    6.38%
Elapsed time = 102.63 sec. (108996.58 ticks, tree = 0.32 MB, solutions = 4)
    238   142      195.0000   218      188.0000      200.0000   297602    6.38%
    250   149      196.0000   100      188.0000      200.0000   303064    6.38%
    260   156      195.0000   122      188.0000      200.0000   308400    6.38%
    274   163      194.0000   150      188.0000      200.0000   314619    6.38%
    288   171      194.0000   172      188.0000      200.0000   322499    6.38%
    300   178      194.0000   148      188.0000      200.0000   329250    6.38%
    316   187      194.0000   106      188.0000      200.0000   335566    6.38%
    331   195      194.0000   114      188.0000      200.0000   342145    6.38%
    349   205      192.7429   175      188.0000      200.0000   347928    6.38%
    368   217      194.0000   149      188.0000      200.0000   352364    6.38%
Elapsed time = 113.36 sec. (118856.52 ticks, tree = 0.50 MB, solutions = 4)
    390   228      193.0000   115      188.0000      200.0000   357839    6.38%
    406   237      192.0000   152      188.0000      200.0000   362717    6.38%
    432   249      190.0000    86      188.0000      200.0000   367066    6.38%
    444   248      199.0000   300      188.0000      200.0000   373285    6.38%
    450   252      199.0000   329      188.0000      200.0000   380101    6.38%
    458   256      198.8378   346      188.0000      200.0000   387123    6.38%
    466   261      199.0000   314      188.0000      200.0000   391341    6.38%
    473   265      199.0000   311      188.0000      200.0000   396557    6.38%
    480   269      198.0000   306      188.0000      200.0000   402037    6.38%
    489   276      198.0000   260      188.0000      200.0000   405743    6.38%
Elapsed time = 124.35 sec. (129516.35 ticks, tree = 0.64 MB, solutions = 4)
    498   283      198.0000   187      188.0000      200.0000   408475    6.38%
    505   286      196.0000   166      188.0000      200.0000   413393    6.38%
    510   284      199.0000   290      188.0000      200.0000   420554    6.38%
    517   288      199.0000   263      188.0000      200.0000   426240    6.38%
    524   291      196.9803   203      188.0000      200.0000   431119    6.38%
    537   297      194.0000   222      188.0000      200.0000   434729    6.38%
    555   308      191.0000   100      188.0000      200.0000   438462    6.38%
    574   317      191.0000    62      188.0000      200.0000   441442    6.38%
    585   316      199.0000   254      188.0000      200.0000   447460    6.38%
    593   320      196.3333   239      188.0000      200.0000   451921    6.38%
Elapsed time = 134.80 sec. (139420.06 ticks, tree = 0.73 MB, solutions = 4)
    601   325      194.0000   238      188.0000      200.0000   454475    6.38%
    617   332      192.0000   218      188.0000      200.0000   457553    6.38%
    633   339      192.0000    76      188.0000      200.0000   459344    6.38%
    652   342      191.0000    81      188.0000      200.0000   463415    6.38%
    662   344      199.0000   406      188.0000      200.0000   472846    6.38%
    669   348      198.0000   291      188.0000      200.0000   476781    6.38%
    677   355      198.0000   319      188.0000      200.0000   481005    6.38%
    684   360      197.0000   316      188.0000      200.0000   485523    6.38%
    694   366      195.0000   184      188.0000      200.0000   490666    6.38%
    704   372      195.0000   158      188.0000      200.0000   495338    6.38%
Elapsed time = 145.57 sec. (149970.04 ticks, tree = 0.84 MB, solutions = 4)
    716   377      194.0000   174      188.0000      200.0000   502260    6.38%
    728   383      194.0000   174      188.0000      200.0000   505057    6.38%
    745   386    infeasible            188.0000      200.0000   510728    6.38%
    766   387      193.0000   142      188.0000      200.0000   516462    6.38%
    786   387    infeasible            188.0000      200.0000   522525    6.38%
    803   389      200.0000   289      188.0000      200.0000   531663    6.38%
    808   392      198.0000   298      188.0000      200.0000   542476    6.38%
    814   395      197.0000   321      188.0000      200.0000   548172    6.38%
    821   399      196.0000   277      188.0000      200.0000   553434    6.38%
*   867   430      integral     0      189.0000      200.0000   566476    5.82%
    868   431      200.0000   296      189.0000      200.0000   573220    5.82%
Elapsed time = 161.99 sec. (166232.92 ticks, tree = 0.97 MB, solutions = 5)
    880   439      198.0000   410      189.0000      200.0000   587202    5.82%
    916   465      192.0000   176      189.0000      200.0000   601870    5.82%
    941   473      198.0000   363      189.0000      200.0000   620735    5.82%
*   985   475      integral     0      190.0000      200.0000   636159    5.26%
    986   474      199.0000   308      190.0000      200.0000   639361    5.26%
   1006   486      198.7508   245      190.0000      200.0000   665380    5.26%
   1034   504      196.0000   236      190.0000      200.0000   686995    5.26%
   1089   540      192.0000   161      190.0000      200.0000   697658    5.26%
   1098   542      199.0000   371      190.0000      200.0000   709757    5.26%

Performing restart 1

Repeating presolve.
Tried aggregator 1 time.
MIP Presolve eliminated 0 rows and 190 columns.
MIP Presolve modified 14131 coefficients.
Reduced MIP has 1212 rows, 4810 columns, and 48415 nonzeros.
Reduced MIP has 4810 binaries, 0 generals, 0 SOSs, and 0 indicators.
Presolve time = 0.04 sec. (39.43 ticks)
Tried aggregator 1 time.
MIP Presolve eliminated 0 rows and 378 columns.
Reduced MIP has 1212 rows, 4432 columns, and 42954 nonzeros.
Reduced MIP has 4432 binaries, 0 generals, 0 SOSs, and 0 indicators.
Presolve time = 0.02 sec. (21.19 ticks)
Tried aggregator 1 time.
Reduced MIP has 1212 rows, 4432 columns, and 42954 nonzeros.
Reduced MIP has 4432 binaries, 0 generals, 0 SOSs, and 0 indicators.
Presolve time = 0.03 sec. (25.04 ticks)
Represolve time = 0.41 sec. (266.10 ticks)
   1100     0      199.0000   870      190.0000     Cuts: 362   722043    4.74%
   1100     0      199.0000   850      190.0000     Cuts: 234   727159    4.74%
   1100     0      199.0000   860      190.0000     Cuts: 216   731297    4.74%
   1100     0      199.0000   408      190.0000       Cuts: 9   733246    4.74%
   1100     0      199.0000   621      190.0000     Cuts: 129   735175    4.74%
   1100     0      199.0000   399      190.0000      Cuts: 12   736564    4.74%
   1100     0      199.0000   517      190.0000     Cuts: 189   739362    4.74%
   1100     0      199.0000   645      190.0000      Cuts: 11   743051    4.74%
   1100     2      199.0000   278      190.0000      199.0000   743051    4.74%
   1103     5      199.0000   400      190.0000      199.0000   758062    4.74%
Elapsed time = 248.88 sec. (250565.13 ticks, tree = 0.01 MB, solutions = 6)
   1111    13      199.0000   548      190.0000      199.0000   772312    4.74%
   1116    18      199.0000   612      190.0000      199.0000   785470    4.74%
   1124    26      199.0000   527      190.0000      199.0000   800574    4.74%
   1129    29        cutoff            190.0000      199.0000   824003    4.74%
   1134    31      199.0000   377      190.0000      199.0000   833606    4.74%
   1137    34      199.0000   437      190.0000      199.0000   849541    4.74%
   1143    40      199.0000   617      190.0000      199.0000   863968    4.74%
   1147    44      199.0000   372      190.0000      199.0000   881914    4.74%
   1153    49      199.0000   368      190.0000      199.0000   895456    4.74%
   1157    52      198.6875   513      190.0000      199.0000   911464    4.74%
Elapsed time = 291.29 sec. (294699.00 ticks, tree = 0.42 MB, solutions = 6)
   1164    59      199.0000   360      190.0000      199.0000   933432    4.74%
   1172    67      199.0000   325      190.0000      199.0000   942326    4.74%
   1180    75      199.0000   340      190.0000      199.0000   955212    4.74%
   1190    84      199.0000   307      190.0000      199.0000   966150    4.74%
   1199    93      199.0000   386      190.0000      199.0000   979546    4.74%
   1200    94      199.0000   291      190.0000      199.0000   980572    4.74%
   1207   101      199.0000   407      190.0000      199.0000   994940    4.74%
   1215   109      199.0000   328      190.0000      199.0000  1008800    4.74%
   1220   114      198.6667   395      190.0000      199.0000  1021526    4.74%
   1239   131      198.0000   249      190.0000      199.0000  1029423    4.74%
Elapsed time = 341.84 sec. (344616.39 ticks, tree = 1.29 MB, solutions = 6)
   1251   135      199.0000   413      190.0000      199.0000  1039508    4.74%
   1266   142      198.0000   454      190.0000      199.0000  1046962    4.74%
   1281   152      194.3030   265      190.0000      199.0000  1056189    4.74%
   1292   158      196.0000   439      190.0000      199.0000  1064702    4.74%
   1321   167      194.0000   231      190.0000      199.0000  1074775    4.74%
   1337   167      198.0000   439      190.0000      199.0000  1088357    4.74%
   1350   170      198.0000   483      190.0000      199.0000  1095266    4.74%
   1360   174      198.0000   493      190.0000      199.0000  1099871    4.74%
   1380   176      198.0000   452      190.0000      199.0000  1108388    4.74%
   1393   179      198.0000   406      190.0000      199.0000  1124469    4.74%
Elapsed time = 383.03 sec. (385644.67 ticks, tree = 1.89 MB, solutions = 6)
   1409   180      199.0000   378      190.0000      199.0000  1135309    4.74%
   1415   186      198.8333   444      190.0000      199.0000  1151398    4.74%
   1422   193      198.7083   480      190.0000      199.0000  1159065    4.74%
   1434   199      199.0000   369      190.0000      199.0000  1171753    4.74%
   1448   206      199.0000   433      190.0000      199.0000  1182225    4.74%
   1463   214      199.0000   387      190.0000      199.0000  1191278    4.74%
   1479   225      197.5926   408      190.0000      199.0000  1199096    4.74%
   1496   233        cutoff            190.0000      199.0000  1210580    4.74%
   1512   240      198.4133   392      190.0000      199.0000  1222480    4.74%
   1528   246      197.0000   456      190.0000      199.0000  1235829    4.74%
Elapsed time = 422.66 sec. (425437.92 ticks, tree = 2.73 MB, solutions = 6)
   1549   252        cutoff            190.0000      199.0000  1246614    4.74%
   1566   263      196.5045   347      190.0000      199.0000  1254236    4.74%
   1584   268        cutoff            190.0000      199.0000  1266769    4.74%
   1606   275      196.0000   321      190.0000      199.0000  1280312    4.74%
   1644   284      194.0000   252      190.0000      199.0000  1291801    4.74%
   1667   287      198.0000   500      190.0000      199.0000  1303151    4.74%
   1687   296      195.0000   441      190.0000      199.0000  1310496    4.74%
   1709   301      194.0000   265      190.0000      199.0000  1321850    4.74%
   1741   310    infeasible            190.0000      199.0000  1331527    4.74%
   1783   312      199.0000   481      190.0000      199.0000  1344866    4.74%
Elapsed time = 465.05 sec. (466120.65 ticks, tree = 3.57 MB, solutions = 6)
   1798   321      198.0000   500      190.0000      199.0000  1351373    4.74%
   1810   324      199.0000   388      190.0000      199.0000  1363800    4.74%
   1822   335      199.0000   397      190.0000      199.0000  1369967    4.74%
   1831   338      199.0000   462      190.0000      199.0000  1381026    4.74%
   1843   346      197.0000   386      190.0000      199.0000  1390644    4.74%
   1864   355      196.0000   361      190.0000      199.0000  1400557    4.74%
   1876   362        cutoff            190.0000      199.0000  1411487    4.74%
   1888   374      199.0000   389      190.0000      199.0000  1419709    4.74%
   1900   384      199.0000   394      190.0000      199.0000  1426691    4.74%
   1913   397      199.0000   399      190.0000      199.0000  1433747    4.74%
Elapsed time = 504.98 sec. (506720.01 ticks, tree = 4.67 MB, solutions = 6)
   1927   411      199.0000   437      190.0000      199.0000  1441064    4.74%
   1943   421        cutoff            190.0000      199.0000  1448075    4.74%
   1956   430        cutoff            190.0000      199.0000  1458640    4.74%
   1972   440      199.0000   372      190.0000      199.0000  1467406    4.74%
   1987   447        cutoff            190.0000      199.0000  1480506    4.74%
   2002   457      199.0000   388      190.0000      199.0000  1492060    4.74%
   2017   462      198.0000   398      190.0000      199.0000  1505751    4.74%
   2033   468        cutoff            190.0000      199.0000  1519396    4.74%
   2054   477      196.0000   309      190.0000      199.0000  1531520    4.74%
   2093   487      194.0000   275      190.0000      199.0000  1542818    4.74%
Elapsed time = 545.04 sec. (546055.12 ticks, tree = 5.79 MB, solutions = 6)
Starting limited solution polishing.
   2127   490      198.6129   533      190.0000      199.0000  1559433    4.74%
   2141   495      195.0000   581      190.0000      199.0000  1565828    4.74%
   2158   508      192.0000   384      190.0000      199.0000  1571731    4.74%
   2194   516      192.0000   199      190.0000      199.0000  1581131    4.74%
   2219   521      197.0000   497      190.0000      199.0000  1593496    4.74%
   2229   526      199.0000   400      190.0000      199.0000  1599800    4.74%
   2237   531      199.0000   388      190.0000      199.0000  1610862    4.74%
   2245   537      199.0000   434      190.0000      199.0000  1620765    4.74%
   2257   545      199.0000   262      190.0000      199.0000  1631196    4.74%
   2269   557      199.0000   375      190.0000      199.0000  1639405    4.74%
Elapsed time = 586.51 sec. (587411.61 ticks, tree = 6.70 MB, solutions = 6)
   2280   562      198.9559   504      190.0000      199.0000  1651382    4.74%
   2298   569      196.0000   367      190.0000      199.0000  1660631    4.74%
   2318   574      195.0000   356      190.0000      199.0000  1671988    4.74%

Clique cuts applied:  73
Mixed integer rounding cuts applied:  7
Zero-half cuts applied:  88
Lift and project cuts applied:  2
Gomory fractional cuts applied:  5

Root node processing (before b&c):
  Real time             =   37.29 sec. (41646.12 ticks)
Sequential b&c:
  Real time             =  562.71 sec. (559190.33 ticks)
                          ------------
Total (root+branch&cut) =  600.00 sec. (600836.45 ticks)
Primal:	190
Dual:	199
Status:	Feasible
Time:	600.01
Sequence:
	22
	7
	14
	10
	15
	6
	22
	0
	17
	12
	14
	6
	15
	10
	17
	1
	20
	8
	14
	6
	17
	5
	17
	8
	14
	10
	19
	0
	22
	6
	14
	6
	19
	5
	17
	6
	14
	4
	18
	6
	16
	8
	17
	3
	17
	8
	16
	6
	9
	16
	6
	17
	4
	8
	14
	6
	20
	1
	17
	4
	17
	6
	16
	7
	17
	2
	17
	8
	16
	9
	17
	2
	8
	17
	3
	8
	14
	8
	17
	2
	18
	6
	16
	8
	19
	2
	18
	6
	14
	8
	17
	4
	18
	6
	16
	8
	14
	11
	15
	6
	16
	6
	19
	5
	17
	6
	14
	10
	19
	0
	22
	6
	14
	10
	14
	9
	12
	14
	6
	6
	16
	8
	8
	16
	7
	17
	4
	17
	6
	15
	11
	14
	8
	14
	10
	14
	9
	14
	12
	14
	6
	17
	3
	19
	8
	14
	10
	7
	15
	12
	14
	6
	14
	8
	13
	14
	6
	16
	6
	18
	4
	17
	8
	14
	6
	15
	10
	15
	7
	14
	8
	10
	14
	6
	14
	7
	10
	15
	8
	16
	6
	17
	5
	19
	6
	14
	10
	15
	9
	20
